Problem:    
Rows:       256
Columns:    89 (72 integer, 72 binary)
Non-zeros:  960
Status:     INTEGER OPTIMAL
Objective:  value = 16.496901 (MINimum)

   No.   Row name        Activity     Lower bound   Upper bound
------ ------------    ------------- ------------- -------------
     1 r.5                   16.4969             0               
     2 r.6                   9.53828      -998.123               
     3 r.7                    1016.5             0               
     4 r.8                  -990.462      -991.851               
     5 r.9                    1016.5             0               
     6 r.10                 -988.661      -997.844               
     7 r.11                  16.4969             0               
     8 r.12                  11.3394      -991.309               
     9 r.13                   1016.5             0               
    10 r.14                 -990.817      -997.094               
    11 r.15                  16.4969             0               
    12 r.16                  11.3394      -986.941               
    13 r.17                   1016.5             0               
    14 r.18                 -997.578      -998.698               
    15 r.19                  16.4969             0               
    16 r.20                 -991.698      -992.818               
    17 r.21                   1016.5             0               
    18 r.22                 -995.608       -998.03               
    19 r.23                  16.4969             0               
    20 r.24                  11.1885      -991.323               
    21 r.25                   1016.5             0               
    22 r.26                 -999.897      -999.897               
    23 r.27                  16.4969             0               
    24 r.28                 -996.471      -996.471               
    25 r.29                  16.4969             0               
    26 r.30                  16.4969      -994.703               
    27 r.31                   1016.5             0               
    28 r.32                 -983.503      -993.041               
    29 r.33                   1016.5             0               
    30 r.34                 -983.503      -994.842               
    31 r.35                  16.4969             0               
    32 r.36                  16.4969       -992.63               
    33 r.37                        1             1             = 
    34 r.38                        1             1             = 
    35 r.39                        1             1             = 
    36 r.40                        1             1             = 
    37 r.41                        1             1             = 
    38 r.42                        1             1             = 
    39 r.43                        1             1             = 
    40 r.44                        1             1             = 
    41 r.45                     1001             2               
    42 r.46                    -1001         -1001               
    43 r.47                   2001.8      -997.844               
    44 r.48                     1001             2               
    45 r.49                    -1001         -1001               
    46 r.50                   2001.8      -991.309               
    47 r.51                     1001             2               
    48 r.52                    -1001         -1001               
    49 r.53                  1999.65      -997.094               
    50 r.54                     1001             2               
    51 r.55                    -1001         -1001               
    52 r.56                   2001.8      -986.941               
    53 r.57                     1001             2               
    54 r.58                    -1001         -1001               
    55 r.59                  1992.88      -998.698               
    56 r.60                     1001             2               
    57 r.61                    -1001         -1001               
    58 r.62                  998.764      -992.818               
    59 r.63                     1001             2               
    60 r.64                    -1001         -1001               
    61 r.65                  1994.85       -998.03               
    62 r.66                     1001             2               
    63 r.67                    -1001         -1001               
    64 r.68                  2001.65      -991.323               
    65 r.69                  8.41777      -998.123               
    66 r.70                 -991.582      -991.851               
    67 r.71                  1006.84      -998.123               
    68 r.72                  6.84072      -991.851               
    69 r.73                  6.95862      -994.703               
    70 r.74                 -993.041      -993.041               
    71 r.75                  6.95862      -994.703               
    72 r.76                 -993.041      -993.041               
    73 r.77                     1001             2               
    74 r.78                    -1001         -1001               
    75 r.79                  2006.96      -994.842               
    76 r.80                     1001             2               
    77 r.81                    -1001         -1001               
    78 r.82                  2006.96       -992.63               
    79 r.83                     1001             2               
    80 r.84                    -1001         -1001               
    81 r.85                   1998.2        1.8768               
    82 r.86                     1001             2               
    83 r.87                    -1001         -1001               
    84 r.88                   1998.2       8.14921               
    85 r.89                        2             2               
    86 r.90                       -2         -1001               
    87 r.91                 -2.15604      -997.094               
    88 r.92                     1000             2               
    89 r.93                    -1000         -1001               
    90 r.94                     2000      -986.941               
    91 r.95                        2             2               
    92 r.96                       -2         -1001               
    93 r.97                 -8.91731      -998.698               
    94 r.98                     1000             2               
    95 r.99                    -1000         -1001               
    96 r.100                 996.963      -992.818               
    97 r.101                       2             2               
    98 r.102                      -2         -1001               
    99 r.103                 -6.9473       -998.03               
   100 r.104                    1000             2               
   101 r.105                   -1000         -1001               
   102 r.106                 1999.85      -991.323               
   103 r.107                -989.781      -997.844               
   104 r.108                 10.2189      -991.309               
   105 r.109                 8.64184      -997.844               
   106 r.110                 1008.64      -991.309               
   107 r.111                    1001             2               
   108 r.112                   -1001         -1001               
   109 r.113                 2005.16      -994.703               
   110 r.114                    1001             2               
   111 r.115                   -1001         -1001               
   112 r.116                 2005.16      -993.041               
   113 r.117                -994.842      -994.842               
   114 r.118                  5.1575       -992.63               
   115 r.119                -994.842      -994.842               
   116 r.120                  5.1575       -992.63               
   117 r.121                    1001             2               
   118 r.122                   -1001         -1001               
   119 r.123                 2000.35        1.8768               
   120 r.124                    1001             2               
   121 r.125                   -1001         -1001               
   122 r.126                  1998.2       8.14921               
   123 r.127                       2             2               
   124 r.128                      -2         -1001               
   125 r.129                 2.15604       2.15604               
   126 r.130                    1000             2               
   127 r.131                   -1000         -1001               
   128 r.132                    2000       8.69059               
   129 r.133                -993.239      -997.094               
   130 r.134                 8.91731      -986.941               
   131 r.135                0.881343      -997.094               
   132 r.136                 1003.04      -986.941               
   133 r.137                       2             2               
   134 r.138                      -2         -1001               
   135 r.139                -4.79126       -998.03               
   136 r.140                    1000             2               
   137 r.141                   -1000         -1001               
   138 r.142                 1999.85      -991.323               
   139 r.143                -991.937      -997.094               
   140 r.144                 10.2189      -986.941               
   141 r.145                  6.4858      -997.094               
   142 r.146                 1008.64      -986.941               
   143 r.147                    1001             2               
   144 r.148                   -1001         -1001               
   145 r.149                 2007.31      -994.703               
   146 r.150                    1001             2               
   147 r.151                   -1001         -1001               
   148 r.152                 2005.16      -993.041               
   149 r.153                -992.686      -994.842               
   150 r.154                 7.31354       -992.63               
   151 r.155                -994.842      -994.842               
   152 r.156                  5.1575       -992.63               
   153 r.157                    1001             2               
   154 r.158                   -1001         -1001               
   155 r.159                 2007.12        1.8768               
   156 r.160                    1001             2               
   157 r.161                   -1001         -1001               
   158 r.162                 3001.24       8.14921               
   159 r.163                       2             2               
   160 r.164                      -2         -1001               
   161 r.165                 8.91731       2.15604               
   162 r.166                    1000             2               
   163 r.167                   -1000         -1001               
   164 r.168                 3003.04       8.69059               
   165 r.169                       2             2               
   166 r.170                      -2         -1001               
   167 r.171                 -998.03       -998.03               
   168 r.172                    1000             2               
   169 r.173                   -1000         -1001               
   170 r.174                 3002.89      -991.323               
   171 r.175                -998.698      -998.698               
   172 r.176                -992.818      -992.818               
   173 r.177               -0.275471      -998.698               
   174 r.178                 5.60445      -992.818               
   175 r.179                    1001             2               
   176 r.180                   -1001         -1001               
   177 r.181                 2014.07      -994.703               
   178 r.182                    1001             2               
   179 r.183                   -1001         -1001               
   180 r.184                 3008.19      -993.041               
   181 r.185                -985.925      -994.842               
   182 r.186                 14.0748       -992.63               
   183 r.187                 8.19489      -994.842               
   184 r.188                 1008.19       -992.63               
   185 r.189                    1001             2               
   186 r.190                   -1001         -1001               
   187 r.191                 2003.26        1.8768               
   188 r.192                    1001             2               
   189 r.193                   -1001         -1001               
   190 r.194                    2000       8.14921               
   191 r.195                       2             2               
   192 r.196                      -2         -1001               
   193 r.197                 5.06187       2.15604               
   194 r.198                    1000             2               
   195 r.199                   -1000         -1001               
   196 r.200                  2001.8       8.69059               
   197 r.201                       2             2               
   198 r.202                      -2         -1001               
   199 r.203                 2.90582       2.90582               
   200 r.204                    1000             2               
   201 r.205                   -1000         -1001               
   202 r.206                  2001.8       13.0594               
   203 r.207                       2             2               
   204 r.208                      -2         -1001               
   205 r.209                 996.145       1.30157               
   206 r.210                    1000             2               
   207 r.211                   -1000         -1001               
   208 r.212                 998.764        7.1815               
   209 r.213                -996.728       -998.03               
   210 r.214                  10.068      -991.323               
   211 r.215                 1.69454       -998.03               
   212 r.216                 1008.49      -991.323               
   213 r.217                 10.2194      -994.703               
   214 r.218                -989.781      -993.041               
   215 r.219                 6.95862      -994.703               
   216 r.220                -993.041      -993.041               
   217 r.221                -989.781      -994.842               
   218 r.222                 10.2194       -992.63               
   219 r.223                -993.041      -994.842               
   220 r.224                 6.95862       -992.63               
   221 r.225                    1001             2               
   222 r.226                   -1001         -1001               
   223 r.227                 1994.84       2.15604               
   224 r.228                    1001             2               
   225 r.229                   -1001         -1001               
   226 r.230                 1994.84       8.69059               
   227 r.231                    1001             2               
   228 r.232                   -1001         -1001               
   229 r.233                 1992.69       2.90582               
   230 r.234                    1001             2               
   231 r.235                   -1001         -1001               
   232 r.236                 1994.84       13.0594               
   233 r.237                    1001             2               
   234 r.238                   -1001         -1001               
   235 r.239                 1985.93       1.30157               
   236 r.240                    1001             2               
   237 r.241                   -1001         -1001               
   238 r.242                 991.805        7.1815               
   239 r.243                    1001             2               
   240 r.244                   -1001         -1001               
   241 r.245                    2000      -994.842               
   242 r.246                    1001             2               
   243 r.247                   -1001         -1001               
   244 r.248                    2000       -992.63               
   245 r.249                    1001             2               
   246 r.250                   -1001         -1001               
   247 r.251                 1993.04        1.8768               
   248 r.252                    1001             2               
   249 r.253                   -1001         -1001               
   250 r.254                 1993.04       8.14921               
   251 r.255                    1001             2               
   252 r.256                   -1001         -1001               
   253 r.257                    2000       5.29706               
   254 r.258                    1001             2               
   255 r.259                   -1001         -1001               
   256 r.260                    2000       6.95862               

   No. Column name       Activity     Lower bound   Upper bound
------ ------------    ------------- ------------- -------------
     1 tt                    16.4969             0               
     2 s_1_1        *              0             0             1 
     3 t_1_1                 6.95862             0               
     4 s_1_7        *              0             0             1 
     5 s_2_1        *              1             0             1 
     6 t_2_1                 6.95862             0               
     7 s_2_7        *              1             0             1 
     8 s_1_2        *              1             0             1 
     9 t_1_2                  5.1575             0               
    10 s_1_8        *              1             0             1 
    11 s_2_2        *              0             0             1 
    12 t_2_2                  5.1575             0               
    13 s_2_8        *              0             0             1 
    14 s_1_3        *              1             0             1 
    15 t_1_3                 7.31354             0               
    16 s_2_3        *              0             0             1 
    17 t_2_3                  5.1575             0               
    18 s_1_4        *              1             0             1 
    19 t_1_4                 14.0748             0               
    20 s_2_4        *              0             0             1 
    21 t_2_4                 1008.19             0               
    22 s_1_5        *              1             0             1 
    23 t_1_5                 10.2194             0               
    24 s_2_5        *              0             0             1 
    25 t_2_5                 6.95862             0               
    26 s_1_6        *              1             0             1 
    27 t_1_6                 15.3764             0               
    28 s_2_6        *              0             0             1 
    29 t_2_6                  1013.8             0               
    30 t_1_7                       0             0               
    31 t_2_7                       0             0               
    32 t_1_8                       0             0               
    33 t_2_8                       0             0               
    34 r_1_1_2      *              1             0             1 
    35 u_1_1_2      *              0             0             1 
    36 r_2_1_2      *              1             0             1 
    37 u_2_1_2      *              0             0             1 
    38 r_1_1_3      *              1             0             1 
    39 u_1_1_3      *              0             0             1 
    40 r_2_1_3      *              1             0             1 
    41 u_2_1_3      *              0             0             1 
    42 r_1_1_4      *              1             0             1 
    43 u_1_1_4      *              0             0             1 
    44 r_2_1_4      *              1             0             1 
    45 u_2_1_4      *              0             0             1 
    46 r_1_1_5      *              1             0             1 
    47 u_1_1_5      *              0             0             1 
    48 r_2_1_5      *              1             0             1 
    49 u_2_1_5      *              0             0             1 
    50 r_1_1_8      *              1             0             1 
    51 u_1_1_8      *              0             0             1 
    52 r_2_1_8      *              1             0             1 
    53 u_2_1_8      *              0             0             1 
    54 r_1_2_3      *              0             0             1 
    55 u_1_2_3      *              0             0             1 
    56 r_2_2_3      *              1             0             1 
    57 u_2_2_3      *              0             0             1 
    58 r_1_2_4      *              0             0             1 
    59 u_1_2_4      *              0             0             1 
    60 r_2_2_4      *              1             0             1 
    61 u_2_2_4      *              0             0             1 
    62 r_1_2_5      *              0             0             1 
    63 u_1_2_5      *              0             0             1 
    64 r_2_2_5      *              1             0             1 
    65 u_2_2_5      *              0             0             1 
    66 r_1_2_7      *              1             0             1 
    67 u_1_2_7      *              0             0             1 
    68 r_2_2_7      *              1             0             1 
    69 u_2_2_7      *              0             0             1 
    70 r_1_3_5      *              0             0             1 
    71 u_1_3_5      *              0             0             1 
    72 r_2_3_5      *              1             0             1 
    73 u_2_3_5      *              0             0             1 
    74 r_1_3_7      *              1             0             1 
    75 u_1_3_7      *              0             0             1 
    76 r_2_3_7      *              1             0             1 
    77 u_2_3_7      *              0             0             1 
    78 r_1_4_5      *              0             0             1 
    79 u_1_4_5      *              1             0             1 
    80 r_2_4_5      *              1             0             1 
    81 u_2_4_5      *              0             0             1 
    82 r_1_4_7      *              1             0             1 
    83 u_1_4_7      *              0             0             1 
    84 r_2_4_7      *              1             0             1 
    85 u_2_4_7      *              0             0             1 
    86 r_1_7_8      *              1             0             1 
    87 u_1_7_8      *              0             0             1 
    88 r_2_7_8      *              1             0             1 
    89 u_2_7_8      *              0             0             1 

Integer feasibility conditions:

KKT.PE: max.abs.err = 4.55e-13 on row 164
        max.rel.err = 1.01e-16 on row 210
        High quality

KKT.PB: max.abs.err = 4.44e-16 on row 125
        max.rel.err = 1.41e-16 on row 125
        High quality

End of output
